64 100
9 1 3
5 6 4
8 5 1
5 10 3
9 4 2
2 4 1
5 2 2
9 8 2
10 4 4
6 4 1
1 8 1
8 9 2
8 1 1
3 4 1
7 10 1
6 6 2
3 2 3
8 2 1
6 9 1
7 6 2
2 5 1
1 6 1
6 3 1
8 10 1
5 1 2
1 7 2
10 8 2
1 2 1
2 3 2
6 8 3
2 1 1
5 3 1
3 10 2
6 7 1
2 10 1
7 1 1
4 9 2
7 7 1
5 9 1
2 6 2
2 9 1
4 3 1
1 9 3
8 7 1
3 3 2
10 7 1
4 10 3
3 9 1
10 1 1
1 1 1
7 4 2
4 6 2
9 6 1
7 3 2
5 8 1
9 3 1
7 5 1
6 10 1
7 8 1
10 3 2
3 7 1
2 8 1
7 9 1
5 7 1
30 30 
30 30 
30 30 
30 30 
30 30 
30 30 
30 30 
30 30 
30 30 
30 30 
30 30 
30 30 
30 30 
30 30 
30 30 
30 30 
30 30 
30 30 
30 30 
30 30 
30 30 
30 30 
30 30 
30 30 
30 30 
30 30 
30 30 
30 30 
30 30 
30 30 
30 30 
30 30 
30 30 
30 30 
30 30 
30 30 
30 30 
30 30 
30 30 
30 30 
30 30 
30 30 
30 30 
30 30 
30 30 
30 30 
30 30 
30 30 
30 30 
30 30 
30 30 
30 30 
30 30 
30 30 
30 30 
30 30 
30 30 
30 30 
30 30 
30 30 
30 30 
30 30 
30 30 
30 30 
30 30 
30 30 
30 30 
30 30 
30 30 
30 30 
30 30 
30 30 
30 30 
30 30 
30 30 
30 30 
30 30 
30 30 
30 30 
30 30 
30 30 
30 30 
30 30 
30 30 
30 30 
30 30 
30 30 
30 30 
30 30 
30 30 
30 30 
30 30 
30 30 
30 30 
30 30 
30 30 
30 30 
30 30 
30 30 
30 30 
